ilp_joint_2/output/phototropism_ilp.lp
Maximize
  0.0109996416617886 Z_24_1_0 + 0.4815661622429813 Z_24_1_1
   + 0.00328349424180646 Z_24_1_2 + 0.00336669726516927 Z_24_1_3
Subject To
 constraint1_241: Z_24_1_0 + Z_24_1_1 + Z_24_1_2 + Z_24_1_3 <= 1
 constraint2_1270: <= 1
 constraint2_1271: <= 1
 constraint2_1272: <= 1
 constraint2_1273: <= 1
 constraint2_110: <= 1
 constraint2_111: <= 1
 constraint2_112: <= 1
 constraint2_113: <= 1
 constraint2_240: Z_24_1_0 <= 1
 constraint2_241: Z_24_1_1 <= 1
 constraint2_242: Z_24_1_2 <= 1
 constraint2_243: Z_24_1_3 <= 1
Bounds
Binaries
 Z_24_1_0 Z_24_1_1 Z_24_1_2 Z_24_1_3
End
