ilp_joint_2/output/phototropism_ilp.mps
NAME phototropism_srl_ilp
* Max problem is converted into Min one
ROWS
 N  OBJ
 L  constraint1_241
 L  constraint2_1270
 L  constraint2_1271
 L  constraint2_1272
 L  constraint2_1273
 L  constraint2_110
 L  constraint2_111
 L  constraint2_112
 L  constraint2_113
 L  constraint2_240
 L  constraint2_241
 L  constraint2_242
 L  constraint2_243
COLUMNS
    MARKER    'MARKER'                 'INTORG'
    Z_24_1_0  OBJ       -1.0999641661788573e-02
    Z_24_1_0  constraint1_241  1
    Z_24_1_0  constraint2_240  1
    Z_24_1_1  OBJ       -4.8156616224298127e-01
    Z_24_1_1  constraint1_241  1
    Z_24_1_1  constraint2_241  1
    Z_24_1_2  OBJ       -3.2834942418064617e-03
    Z_24_1_2  constraint1_241  1
    Z_24_1_2  constraint2_242  1
    Z_24_1_3  OBJ       -3.3666972651692651e-03
    Z_24_1_3  constraint1_241  1
    Z_24_1_3  constraint2_243  1
    MARKER    'MARKER'                 'INTEND'
RHS
    RHS1      constraint1_241  1
    RHS1      constraint2_1270  1
    RHS1      constraint2_1271  1
    RHS1      constraint2_1272  1
    RHS1      constraint2_1273  1
    RHS1      constraint2_110  1
    RHS1      constraint2_111  1
    RHS1      constraint2_112  1
    RHS1      constraint2_113  1
    RHS1      constraint2_240  1
    RHS1      constraint2_241  1
    RHS1      constraint2_242  1
    RHS1      constraint2_243  1
BOUNDS
 UP BND1      Z_24_1_0  1
 UP BND1      Z_24_1_1  1
 UP BND1      Z_24_1_2  1
 UP BND1      Z_24_1_3  1
ENDATA
