ilp_joint_2/output/phototropism_ilp.sol
# Solution for model phototropism_srl_ilp
# Objective value = 4.8156616224298127e-01
Z_24_1_0 0
Z_24_1_1 1
Z_24_1_2 0
Z_24_1_3 0
